
        $ From http://www.csplib.org/Problems/prob009/data/helmut.pdf
        $ Problem number 121
        $ Sequence length : 25
        language ESSENCE' 1.0
        letting sizemaster be 392
        letting sizes be sequence(1,4,5,8,11,14,16,21,22,24,27,28,30,31,52,64,81,83,96,97,98,99,114,195,197)
        